
Gurobi 11.0.1 (win64) logging started Mon May 13 15:45:21 2024

Set parameter LogFile to value "output/solver_log33.txt"
Gurobi Optimizer version 11.0.1 build v11.0.1rc0 (win64 - Windows 11.0 (22631.2))

CPU model: 11th Gen Intel(R) Core(TM) i7-1165G7 @ 2.80GHz, instruction set [SSE2|AVX|AVX2|AVX512]
Thread count: 4 physical cores, 8 logical processors, using up to 8 threads

Optimize a model with 2235 rows, 443 columns and 41269 nonzeros
Model fingerprint: 0x99003444
Variable types: 248 continuous, 195 integer (195 binary)
Coefficient statistics:
  Matrix range     [4e-01, 1e+05]
  Objective range  [1e+00, 1e+02]
  Bounds range     [1e+00, 1e+00]
  RHS range        [1e-02, 1e+05]

User MIP start produced solution with objective 77904.5 (0.00s)
User MIP start produced solution with objective 77904.5 (0.01s)
Loaded user MIP start with objective 77904.5

Presolve removed 120 rows and 120 columns
Presolve time: 0.05s
Presolved: 2115 rows, 323 columns, 40628 nonzeros
Variable types: 229 continuous, 94 integer (94 binary)

Root relaxation: cutoff, 13 iterations, 0.01 seconds (0.01 work units)

    Nodes    |    Current Node    |     Objective Bounds      |     Work
 Expl Unexpl |  Obj  Depth IntInf | Incumbent    BestBd   Gap | It/Node Time

     0     0     cutoff    0      77904.5223 77904.5223  0.00%     -    0s

Explored 1 nodes (13 simplex iterations) in 0.11 seconds (0.18 work units)
Thread count was 8 (of 8 available processors)

Solution count 2: 77904.5 77904.5 

Optimal solution found (tolerance 1.00e-04)
Best objective 7.790452225654e+04, best bound 7.790452225654e+04, gap 0.0000%
